solc_new/solidity/out1.smt2
Invariant generation in CHC encoding enabled!
relation registered: interface_0_SimpleStorage_44
relation registered: nondet_interface_1_SimpleStorage_44
relation registered: summary_constructor_2_SimpleStorage_44
relation registered: summary_3_function_get__43_44
relation registered: summary_4_function_get__43_44
relation registered: block_5_function_get__43_44
relation registered: block_6_get_42_44
relation registered: block_7_return_function_get__43_44
relation registered: block_8_while_header_get_33_44
relation registered: block_9_while_precondition_test_get_33_44
relation registered: block_10_while_body_get_32_44
relation registered: block_11_while_inductive_test_get_33_44
relation registered: block_12_get_42_44
Reset
Reached if block 
Invariants generated
relation registered: invariant_target_0
UNSAT: Is an invariant
relation registered: invariant_target_1
UNSAT: Is an invariant
relation registered: invariant_target_2
SAT: Not an invariant
relation registered: invariant_target_3
relation registered: invariant_target_4
UNSAT: Is an invariant
UNSAT: Is an invariant
relation registered: block_13_function_get__43_44
relation registered: block_14_return_ghost_get_41_44
relation registered: block_15_function_get__43_44
relation registered: contract_initializer_16_SimpleStorage_44
relation registered: contract_initializer_entry_17_SimpleStorage_44
relation registered: contract_initializer_after_init_18_SimpleStorage_44
relation registered: implicit_constructor_entry_19_SimpleStorage_44
Reset
Reached if block 
Invariants added to encoding
Warning: This is a pre-release compiler version, please do not use it in production.

Info: CHC: Requested query:
(set-logic HORN)
(declare-datatypes ((|abi_type| 0)) (((|abi_type|))))
(declare-datatypes ((|ecrecover_input_type| 0)) (((|ecrecover_input_type| (|hash| Int) (|v| Int) (|r| Int) (|s| Int)))))
(declare-datatypes ((|bytes_tuple| 0)) (((|bytes_tuple| (|bytes_tuple_accessor_array| (Array Int Int)) (|bytes_tuple_accessor_length| Int)))))
(declare-datatypes ((|crypto_type| 0)) (((|crypto_type| (|ecrecover| (Array |ecrecover_input_type| Int)) (|keccak256| (Array |bytes_tuple| Int)) (|ripemd160| (Array |bytes_tuple| Int)) (|sha256| (Array |bytes_tuple| Int))))))
(declare-datatypes ((|state_type| 0)) (((|state_type| (|balances| (Array Int Int))))))
(declare-datatypes ((|mapping(address => uint256)_tuple| 0)) (((|mapping(address => uint256)_tuple| (|mapping(address => uint256)_tuple_accessor_array| (Array Int Int)) (|mapping(address => uint256)_tuple_accessor_length| Int)))))
(declare-fun |interface_0_SimpleStorage_44| (Int |abi_type| |crypto_type| |state_type| Int |mapping(address => uint256)_tuple|) Bool)
(declare-fun |nondet_interface_1_SimpleStorage_44| (Int Int |abi_type| |crypto_type| |state_type| Int |mapping(address => uint256)_tuple| |state_type| Int |mapping(address => uint256)_tuple|) Bool)
(declare-datatypes ((|tx_type| 0)) (((|tx_type| (|block.basefee| Int) (|block.chainid| Int) (|block.coinbase| Int) (|block.gaslimit| Int) (|block.number| Int) (|block.prevrandao| Int) (|block.timestamp| Int) (|blockhash| (Array Int Int)) (|msg.data| |bytes_tuple|) (|msg.sender| Int) (|msg.sig| Int) (|msg.value| Int) (|tx.gasprice| Int) (|tx.origin| Int)))))
(declare-fun |summary_constructor_2_SimpleStorage_44| (Int Int |abi_type| |crypto_type| |tx_type| |state_type| |state_type| Int |mapping(address => uint256)_tuple| Int |mapping(address => uint256)_tuple|) Bool)
(assert (forall( (abi_0 |abi_type|) (balances_7_length_pair_0 |mapping(address => uint256)_tuple|) (crypto_0 |crypto_type|) (error_0 Int) (state_0 |state_type|) (storedData_3_0 Int) (this_0 Int))
(=> (= error_0 0) (nondet_interface_1_SimpleStorage_44 error_0 this_0 abi_0 crypto_0 state_0 storedData_3_0 balances_7_length_pair_0 state_0 storedData_3_0 balances_7_length_pair_0)))
)
(declare-fun |summary_3_function_get__43_44| (Int Int |abi_type| |crypto_type| |tx_type| |state_type| Int |mapping(address => uint256)_tuple| |state_type| Int |mapping(address => uint256)_tuple| Int) Bool)
(declare-fun |summary_4_function_get__43_44| (Int Int |abi_type| |crypto_type| |tx_type| |state_type| Int |mapping(address => uint256)_tuple| |state_type| Int |mapping(address => uint256)_tuple| Int) Bool)
(assert (forall( (_10_1 Int) (abi_0 |abi_type|) (balances_7_length_pair_0 |mapping(address => uint256)_tuple|) (balances_7_length_pair_1 |mapping(address => uint256)_tuple|) (balances_7_length_pair_2 |mapping(address => uint256)_tuple|) (crypto_0 |crypto_type|) (error_0 Int) (error_1 Int) (state_0 |state_type|) (state_1 |state_type|) (state_2 |state_type|) (storedData_3_0 Int) (storedData_3_1 Int) (storedData_3_2 Int) (this_0 Int) (tx_0 |tx_type|))
(=> (and (and (nondet_interface_1_SimpleStorage_44 error_0 this_0 abi_0 crypto_0 state_0 storedData_3_0 balances_7_length_pair_0 state_1 storedData_3_1 balances_7_length_pair_1) true) (and (= error_0 0) (summary_4_function_get__43_44 error_1 this_0 abi_0 crypto_0 tx_0 state_1 storedData_3_1 balances_7_length_pair_1 state_2 storedData_3_2 balances_7_length_pair_2 _10_1))) (nondet_interface_1_SimpleStorage_44 error_1 this_0 abi_0 crypto_0 state_0 storedData_3_0 balances_7_length_pair_0 state_2 storedData_3_2 balances_7_length_pair_2)))
)
(declare-fun |block_5_function_get__43_44| (Int Int |abi_type| |crypto_type| |tx_type| |state_type| Int |mapping(address => uint256)_tuple| |state_type| Int |mapping(address => uint256)_tuple| Int Int) Bool)
(declare-fun |block_6_get_42_44| (Int Int |abi_type| |crypto_type| |tx_type| |state_type| Int |mapping(address => uint256)_tuple| |state_type| Int |mapping(address => uint256)_tuple| Int Int) Bool)
(assert (forall( (_10_1 Int) (abi_0 |abi_type|) (balances_7_length_pair_0 |mapping(address => uint256)_tuple|) (balances_7_length_pair_1 |mapping(address => uint256)_tuple|) (crypto_0 |crypto_type|) (error_0 Int) (i_13_1 Int) (state_0 |state_type|) (state_1 |state_type|) (storedData_3_0 Int) (storedData_3_1 Int) (this_0 Int) (tx_0 |tx_type|))
(block_5_function_get__43_44 error_0 this_0 abi_0 crypto_0 tx_0 state_0 storedData_3_0 balances_7_length_pair_0 state_1 storedData_3_1 balances_7_length_pair_1 _10_1 i_13_1))
)
(assert (forall( (_10_1 Int) (abi_0 |abi_type|) (balances_7_length_pair_0 |mapping(address => uint256)_tuple|) (balances_7_length_pair_1 |mapping(address => uint256)_tuple|) (crypto_0 |crypto_type|) (error_0 Int) (i_13_1 Int) (state_0 |state_type|) (state_1 |state_type|) (storedData_3_0 Int) (storedData_3_1 Int) (this_0 Int) (tx_0 |tx_type|))
(=> (and (and (block_5_function_get__43_44 error_0 this_0 abi_0 crypto_0 tx_0 state_0 storedData_3_0 balances_7_length_pair_0 state_1 storedData_3_1 balances_7_length_pair_1 _10_1 i_13_1) (and (and (and (and (= state_1 state_0) (= error_0 0)) (and (and true (= storedData_3_1 storedData_3_0)) (= balances_7_length_pair_1 balances_7_length_pair_0))) true) true)) true) (block_6_get_42_44 error_0 this_0 abi_0 crypto_0 tx_0 state_0 storedData_3_0 balances_7_length_pair_0 state_1 storedData_3_1 balances_7_length_pair_1 _10_1 i_13_1)))
)
(declare-fun |block_7_return_function_get__43_44| (Int Int |abi_type| |crypto_type| |tx_type| |state_type| Int |mapping(address => uint256)_tuple| |state_type| Int |mapping(address => uint256)_tuple| Int Int) Bool)
(declare-fun |block_8_while_header_get_33_44| (Int Int |abi_type| |crypto_type| |tx_type| |state_type| Int |mapping(address => uint256)_tuple| |state_type| Int |mapping(address => uint256)_tuple| Int Int) Bool)
(declare-fun |block_9_while_precondition_test_get_33_44| (Int Int |abi_type| |crypto_type| |tx_type| |state_type| Int |mapping(address => uint256)_tuple| |state_type| Int |mapping(address => uint256)_tuple| Int Int) Bool)
(declare-fun |block_10_while_body_get_32_44| (Int Int |abi_type| |crypto_type| |tx_type| |state_type| Int |mapping(address => uint256)_tuple| |state_type| Int |mapping(address => uint256)_tuple| Int Int) Bool)
(declare-fun |block_11_while_inductive_test_get_33_44| (Int Int |abi_type| |crypto_type| |tx_type| |state_type| Int |mapping(address => uint256)_tuple| |state_type| Int |mapping(address => uint256)_tuple| Int Int) Bool)
(declare-fun |block_12_get_42_44| (Int Int |abi_type| |crypto_type| |tx_type| |state_type| Int |mapping(address => uint256)_tuple| |state_type| Int |mapping(address => uint256)_tuple| Int Int) Bool)
(assert (forall( (_10_1 Int) (abi_0 |abi_type|) (balances_7_length_pair_0 |mapping(address => uint256)_tuple|) (balances_7_length_pair_1 |mapping(address => uint256)_tuple|) (crypto_0 |crypto_type|) (error_0 Int) (expr_14_0 Int) (i_13_1 Int) (i_13_2 Int) (state_0 |state_type|) (state_1 |state_type|) (storedData_3_0 Int) (storedData_3_1 Int) (this_0 Int) (tx_0 |tx_type|))
(=> (and (and (block_6_get_42_44 error_0 this_0 abi_0 crypto_0 tx_0 state_0 storedData_3_0 balances_7_length_pair_0 state_1 storedData_3_1 balances_7_length_pair_1 _10_1 i_13_1) (and (= i_13_2 expr_14_0) (and (=> true true) (and (= expr_14_0 0) (and (= _10_1 0) (and (= i_13_1 0) true)))))) true) (block_9_while_precondition_test_get_33_44 error_0 this_0 abi_0 crypto_0 tx_0 state_0 storedData_3_0 balances_7_length_pair_0 state_1 storedData_3_1 balances_7_length_pair_1 _10_1 i_13_2)))
)
(assert (forall( (_10_1 Int) (abi_0 |abi_type|) (balances_7_length_pair_0 |mapping(address => uint256)_tuple|) (balances_7_length_pair_1 |mapping(address => uint256)_tuple|) (crypto_0 |crypto_type|) (error_0 Int) (expr_16_0 Int) (expr_17_0 Int) (expr_18_1 Bool) (i_13_1 Int) (state_0 |state_type|) (state_1 |state_type|) (storedData_3_0 Int) (storedData_3_1 Int) (this_0 Int) (tx_0 |tx_type|))
(=> (and (and (block_8_while_header_get_33_44 error_0 this_0 abi_0 crypto_0 tx_0 state_0 storedData_3_0 balances_7_length_pair_0 state_1 storedData_3_1 balances_7_length_pair_1 _10_1 i_13_1) (and (= expr_18_1 (< expr_16_0 expr_17_0)) (and (=> true true) (and (= expr_17_0 10) (and (=> true (and (>= expr_16_0 0) (<= expr_16_0 115792089237316195423570985008687907853269984665640564039457584007913129639935))) (and (= expr_16_0 i_13_1) true)))))) expr_18_1) (block_10_while_body_get_32_44 error_0 this_0 abi_0 crypto_0 tx_0 state_0 storedData_3_0 balances_7_length_pair_0 state_1 storedData_3_1 balances_7_length_pair_1 _10_1 i_13_1)))
)
(assert (forall( (_10_1 Int) (abi_0 |abi_type|) (balances_7_length_pair_0 |mapping(address => uint256)_tuple|) (balances_7_length_pair_1 |mapping(address => uint256)_tuple|) (crypto_0 |crypto_type|) (error_0 Int) (expr_16_0 Int) (expr_17_0 Int) (expr_18_1 Bool) (i_13_1 Int) (state_0 |state_type|) (state_1 |state_type|) (storedData_3_0 Int) (storedData_3_1 Int) (this_0 Int) (tx_0 |tx_type|))
(=> (and (and (block_8_while_header_get_33_44 error_0 this_0 abi_0 crypto_0 tx_0 state_0 storedData_3_0 balances_7_length_pair_0 state_1 storedData_3_1 balances_7_length_pair_1 _10_1 i_13_1) (and (= expr_18_1 (< expr_16_0 expr_17_0)) (and (=> true true) (and (= expr_17_0 10) (and (=> true (and (>= expr_16_0 0) (<= expr_16_0 115792089237316195423570985008687907853269984665640564039457584007913129639935))) (and (= expr_16_0 i_13_1) true)))))) (not expr_18_1)) (block_12_get_42_44 error_0 this_0 abi_0 crypto_0 tx_0 state_0 storedData_3_0 balances_7_length_pair_0 state_1 storedData_3_1 balances_7_length_pair_1 _10_1 i_13_1)))
)
(assert (forall( (_10_1 Int) (abi_0 |abi_type|) (balances_7_length_pair_0 |mapping(address => uint256)_tuple|) (balances_7_length_pair_1 |mapping(address => uint256)_tuple|) (balances_7_length_pair_2 |mapping(address => uint256)_tuple|) (crypto_0 |crypto_type|) (error_0 Int) (expr_19_0 Int) (expr_20_0 Int) (expr_21_0 Int) (expr_22_1 Int) (expr_23_1 Int) (expr_25_length_pair_0 |mapping(address => uint256)_tuple|) (expr_25_length_pair_1 |mapping(address => uint256)_tuple|) (expr_25_length_pair_2 |mapping(address => uint256)_tuple|) (expr_27_1 Int) (expr_28_1 Int) (expr_28_2 Int) (expr_29_0 Int) (expr_30_1 Int) (i_13_1 Int) (i_13_2 Int) (state_0 |state_type|) (state_1 |state_type|) (storedData_3_0 Int) (storedData_3_1 Int) (this_0 Int) (tx_0 |tx_type|))
(=> (and (and (block_10_while_body_get_32_44 error_0 this_0 abi_0 crypto_0 tx_0 state_0 storedData_3_0 balances_7_length_pair_0 state_1 storedData_3_1 balances_7_length_pair_1 _10_1 i_13_1) (and (= expr_25_length_pair_2 balances_7_length_pair_2) (and (= balances_7_length_pair_2 (|mapping(address => uint256)_tuple| (store (|mapping(address => uint256)_tuple_accessor_array| expr_25_length_pair_1) expr_27_1 expr_30_1) (|mapping(address => uint256)_tuple_accessor_length| expr_25_length_pair_1))) (and (=> true (and (>= expr_28_2 0) (<= expr_28_2 115792089237316195423570985008687907853269984665640564039457584007913129639935))) (and (= expr_28_2 (select (|mapping(address => uint256)_tuple_accessor_array| expr_25_length_pair_1) expr_27_1)) (and (= expr_25_length_pair_1 balances_7_length_pair_1) (and (=> true (and (>= expr_30_1 0) (<= expr_30_1 115792089237316195423570985008687907853269984665640564039457584007913129639935))) (and (= expr_30_1 expr_29_0) (and (and (>= expr_28_1 0) (<= expr_28_1 115792089237316195423570985008687907853269984665640564039457584007913129639935)) (and (=> true (and (>= expr_28_1 0) (<= expr_28_1 115792089237316195423570985008687907853269984665640564039457584007913129639935))) (and (= expr_28_1 (select (|mapping(address => uint256)_tuple_accessor_array| balances_7_length_pair_1) expr_27_1)) (and (=> true (and (>= expr_27_1 0) (<= expr_27_1 1461501637330902918203684832716283019655932542975))) (and (= expr_27_1 (|msg.sender| tx_0)) (and (= expr_25_length_pair_0 balances_7_length_pair_1) (and (=> true true) (and (= expr_29_0 1) (and (= i_13_2 expr_23_1) (and (=> true (and (>= expr_23_1 0) (<= expr_23_1 115792089237316195423570985008687907853269984665640564039457584007913129639935))) (and (= expr_23_1 expr_22_1) (and (=> true (and (>= expr_19_0 0) (<= expr_19_0 115792089237316195423570985008687907853269984665640564039457584007913129639935))) (and (= expr_19_0 i_13_1) (and (=> true (and (>= expr_22_1 0) (<= expr_22_1 115792089237316195423570985008687907853269984665640564039457584007913129639935))) (and (= expr_22_1 (+ expr_20_0 expr_21_0)) (and (=> true true) (and (= expr_21_0 1) (and (=> true (and (>= expr_20_0 0) (<= expr_20_0 115792089237316195423570985008687907853269984665640564039457584007913129639935))) (and (= expr_20_0 i_13_1) true))))))))))))))))))))))))))) true) (block_11_while_inductive_test_get_33_44 error_0 this_0 abi_0 crypto_0 tx_0 state_0 storedData_3_0 balances_7_length_pair_0 state_1 storedData_3_1 balances_7_length_pair_2 _10_1 i_13_2)))
)
(assert (forall( (_10_1 Int) (abi_0 |abi_type|) (balances_7_length_pair_0 |mapping(address => uint256)_tuple|) (balances_7_length_pair_1 |mapping(address => uint256)_tuple|) (balances_7_length_pair_2 |mapping(address => uint256)_tuple|) (crypto_0 |crypto_type|) (error_0 Int) (i_13_1 Int) (i_13_2 Int) (state_0 |state_type|) (state_1 |state_type|) (storedData_3_0 Int) (storedData_3_1 Int) (this_0 Int) (tx_0 |tx_type|))
(=> (and (and (block_9_while_precondition_test_get_33_44 error_0 this_0 abi_0 crypto_0 tx_0 state_0 storedData_3_0 balances_7_length_pair_0 state_1 storedData_3_1 balances_7_length_pair_1 _10_1 i_13_1) true) (and (and true true) true)) (block_8_while_header_get_33_44 error_0 this_0 abi_0 crypto_0 tx_0 state_0 storedData_3_0 balances_7_length_pair_0 state_1 storedData_3_1 balances_7_length_pair_2 _10_1 i_13_2)))
)
(declare-fun |block_13_function_get__43_44| (Int Int |abi_type| |crypto_type| |tx_type| |state_type| Int |mapping(address => uint256)_tuple| |state_type| Int |mapping(address => uint256)_tuple| Int Int) Bool)
(assert (forall( (_10_1 Int) (abi_0 |abi_type|) (balances_7_length_pair_0 |mapping(address => uint256)_tuple|) (balances_7_length_pair_1 |mapping(address => uint256)_tuple|) (crypto_0 |crypto_type|) (error_0 Int) (error_1 Int) (expr_35_0 Int) (expr_36_0 Int) (expr_37_1 Bool) (i_13_1 Int) (state_0 |state_type|) (state_1 |state_type|) (storedData_3_0 Int) (storedData_3_1 Int) (this_0 Int) (tx_0 |tx_type|))
(=> (and (and (block_12_get_42_44 error_0 this_0 abi_0 crypto_0 tx_0 state_0 storedData_3_0 balances_7_length_pair_0 state_1 storedData_3_1 balances_7_length_pair_1 _10_1 i_13_1) (and (= expr_37_1 (= expr_35_0 expr_36_0)) (and (=> true true) (and (= expr_36_0 10) (and (=> true (and (>= expr_35_0 0) (<= expr_35_0 115792089237316195423570985008687907853269984665640564039457584007913129639935))) (and (= expr_35_0 i_13_1) true)))))) (and (and true (not expr_37_1)) (= error_1 1))) (block_13_function_get__43_44 error_1 this_0 abi_0 crypto_0 tx_0 state_0 storedData_3_0 balances_7_length_pair_0 state_1 storedData_3_1 balances_7_length_pair_1 _10_1 i_13_1)))
)
(assert (forall( (_10_1 Int) (abi_0 |abi_type|) (balances_7_length_pair_0 |mapping(address => uint256)_tuple|) (balances_7_length_pair_1 |mapping(address => uint256)_tuple|) (crypto_0 |crypto_type|) (error_1 Int) (i_13_1 Int) (state_0 |state_type|) (state_1 |state_type|) (storedData_3_0 Int) (storedData_3_1 Int) (this_0 Int) (tx_0 |tx_type|))
(=> (block_13_function_get__43_44 error_1 this_0 abi_0 crypto_0 tx_0 state_0 storedData_3_0 balances_7_length_pair_0 state_1 storedData_3_1 balances_7_length_pair_1 _10_1 i_13_1) (summary_3_function_get__43_44 error_1 this_0 abi_0 crypto_0 tx_0 state_0 storedData_3_0 balances_7_length_pair_0 state_1 storedData_3_1 balances_7_length_pair_1 _10_1)))
)
(assert (forall( (_10_1 Int) (_10_2 Int) (abi_0 |abi_type|) (balances_7_length_pair_0 |mapping(address => uint256)_tuple|) (balances_7_length_pair_1 |mapping(address => uint256)_tuple|) (crypto_0 |crypto_type|) (error_0 Int) (error_1 Int) (expr_35_0 Int) (expr_36_0 Int) (expr_37_1 Bool) (expr_40_0 Int) (i_13_1 Int) (state_0 |state_type|) (state_1 |state_type|) (storedData_3_0 Int) (storedData_3_1 Int) (this_0 Int) (tx_0 |tx_type|))
(=> (and (and (block_12_get_42_44 error_0 this_0 abi_0 crypto_0 tx_0 state_0 storedData_3_0 balances_7_length_pair_0 state_1 storedData_3_1 balances_7_length_pair_1 _10_1 i_13_1) (and (= _10_2 expr_40_0) (and (=> true (and (>= expr_40_0 0) (<= expr_40_0 115792089237316195423570985008687907853269984665640564039457584007913129639935))) (and (= expr_40_0 i_13_1) (and (= error_1 error_0) (and (= expr_37_1 (= expr_35_0 expr_36_0)) (and (=> true true) (and (= expr_36_0 10) (and (=> true (and (>= expr_35_0 0) (<= expr_35_0 115792089237316195423570985008687907853269984665640564039457584007913129639935))) (and (= expr_35_0 i_13_1) true)))))))))) true) (block_7_return_function_get__43_44 error_1 this_0 abi_0 crypto_0 tx_0 state_0 storedData_3_0 balances_7_length_pair_0 state_1 storedData_3_1 balances_7_length_pair_1 _10_2 i_13_1)))
)
(declare-fun |block_14_return_ghost_get_41_44| (Int Int |abi_type| |crypto_type| |tx_type| |state_type| Int |mapping(address => uint256)_tuple| |state_type| Int |mapping(address => uint256)_tuple| Int Int) Bool)
(assert (forall( (_10_2 Int) (abi_0 |abi_type|) (balances_7_length_pair_0 |mapping(address => uint256)_tuple|) (balances_7_length_pair_1 |mapping(address => uint256)_tuple|) (crypto_0 |crypto_type|) (error_0 Int) (error_1 Int) (expr_35_0 Int) (expr_36_0 Int) (expr_37_1 Bool) (expr_40_0 Int) (i_13_1 Int) (state_0 |state_type|) (state_1 |state_type|) (storedData_3_0 Int) (storedData_3_1 Int) (this_0 Int) (tx_0 |tx_type|))
(=> (and (and (block_14_return_ghost_get_41_44 error_1 this_0 abi_0 crypto_0 tx_0 state_0 storedData_3_0 balances_7_length_pair_0 state_1 storedData_3_1 balances_7_length_pair_1 _10_2 i_13_1) (and (= _10_2 expr_40_0) (and (=> true (and (>= expr_40_0 0) (<= expr_40_0 115792089237316195423570985008687907853269984665640564039457584007913129639935))) (and (= expr_40_0 i_13_1) (and (= error_1 error_0) (and (= expr_37_1 (= expr_35_0 expr_36_0)) (and (=> true true) (and (= expr_36_0 10) (and (=> true (and (>= expr_35_0 0) (<= expr_35_0 115792089237316195423570985008687907853269984665640564039457584007913129639935))) (and (= expr_35_0 i_13_1) true)))))))))) true) (block_7_return_function_get__43_44 error_1 this_0 abi_0 crypto_0 tx_0 state_0 storedData_3_0 balances_7_length_pair_0 state_1 storedData_3_1 balances_7_length_pair_1 _10_2 i_13_1)))
)
(assert (forall( (_10_1 Int) (abi_0 |abi_type|) (balances_7_length_pair_0 |mapping(address => uint256)_tuple|) (balances_7_length_pair_1 |mapping(address => uint256)_tuple|) (crypto_0 |crypto_type|) (error_0 Int) (i_13_1 Int) (state_0 |state_type|) (state_1 |state_type|) (storedData_3_0 Int) (storedData_3_1 Int) (this_0 Int) (tx_0 |tx_type|))
(=> (and (and (block_7_return_function_get__43_44 error_0 this_0 abi_0 crypto_0 tx_0 state_0 storedData_3_0 balances_7_length_pair_0 state_1 storedData_3_1 balances_7_length_pair_1 _10_1 i_13_1) true) true) (summary_3_function_get__43_44 error_0 this_0 abi_0 crypto_0 tx_0 state_0 storedData_3_0 balances_7_length_pair_0 state_1 storedData_3_1 balances_7_length_pair_1 _10_1)))
)
(declare-fun |block_15_function_get__43_44| (Int Int |abi_type| |crypto_type| |tx_type| |state_type| Int |mapping(address => uint256)_tuple| |state_type| Int |mapping(address => uint256)_tuple| Int Int) Bool)
(assert (forall( (_10_1 Int) (abi_0 |abi_type|) (balances_7_length_pair_0 |mapping(address => uint256)_tuple|) (balances_7_length_pair_1 |mapping(address => uint256)_tuple|) (crypto_0 |crypto_type|) (error_0 Int) (i_13_1 Int) (state_0 |state_type|) (state_1 |state_type|) (storedData_3_0 Int) (storedData_3_1 Int) (this_0 Int) (tx_0 |tx_type|))
(block_15_function_get__43_44 error_0 this_0 abi_0 crypto_0 tx_0 state_0 storedData_3_0 balances_7_length_pair_0 state_1 storedData_3_1 balances_7_length_pair_1 _10_1 i_13_1))
)
(assert (forall( (_10_1 Int) (abi_0 |abi_type|) (balances_7_length_pair_0 |mapping(address => uint256)_tuple|) (balances_7_length_pair_1 |mapping(address => uint256)_tuple|) (balances_7_length_pair_2 |mapping(address => uint256)_tuple|) (crypto_0 |crypto_type|) (error_0 Int) (error_1 Int) (funds_2_0 Int) (i_13_1 Int) (state_0 |state_type|) (state_1 |state_type|) (state_2 |state_type|) (state_3 |state_type|) (storedData_3_0 Int) (storedData_3_1 Int) (storedData_3_2 Int) (this_0 Int) (tx_0 |tx_type|))
(=> (and (and (block_15_function_get__43_44 error_0 this_0 abi_0 crypto_0 tx_0 state_0 storedData_3_0 balances_7_length_pair_0 state_1 storedData_3_1 balances_7_length_pair_1 _10_1 i_13_1) (and (summary_3_function_get__43_44 error_1 this_0 abi_0 crypto_0 tx_0 state_2 storedData_3_1 balances_7_length_pair_1 state_3 storedData_3_2 balances_7_length_pair_2 _10_1) (and (= state_2 (|state_type| (store (|balances| state_1) this_0 (+ (select (|balances| state_1) this_0) funds_2_0)))) (and (and (>= (+ (select (|balances| state_1) this_0) funds_2_0) 0) (<= (+ (select (|balances| state_1) this_0) funds_2_0) 115792089237316195423570985008687907853269984665640564039457584007913129639935)) (and (>= funds_2_0 (|msg.value| tx_0)) (and (and (and (and (and (and (and (and (and (and (and (and (and (> (|block.prevrandao| tx_0) 18446744073709551616) (and (>= (|block.basefee| tx_0) 0) (<= (|block.basefee| tx_0) 115792089237316195423570985008687907853269984665640564039457584007913129639935))) (and (>= (|block.chainid| tx_0) 0) (<= (|block.chainid| tx_0) 115792089237316195423570985008687907853269984665640564039457584007913129639935))) (and (>= (|block.coinbase| tx_0) 0) (<= (|block.coinbase| tx_0) 1461501637330902918203684832716283019655932542975))) (and (>= (|block.prevrandao| tx_0) 0) (<= (|block.prevrandao| tx_0) 115792089237316195423570985008687907853269984665640564039457584007913129639935))) (and (>= (|block.gaslimit| tx_0) 0) (<= (|block.gaslimit| tx_0) 115792089237316195423570985008687907853269984665640564039457584007913129639935))) (and (>= (|block.number| tx_0) 0) (<= (|block.number| tx_0) 115792089237316195423570985008687907853269984665640564039457584007913129639935))) (and (>= (|block.timestamp| tx_0) 0) (<= (|block.timestamp| tx_0) 115792089237316195423570985008687907853269984665640564039457584007913129639935))) (and (>= (|msg.sender| tx_0) 0) (<= (|msg.sender| tx_0) 1461501637330902918203684832716283019655932542975))) (and (>= (|msg.value| tx_0) 0) (<= (|msg.value| tx_0) 115792089237316195423570985008687907853269984665640564039457584007913129639935))) (and (>= (|tx.origin| tx_0) 0) (<= (|tx.origin| tx_0) 1461501637330902918203684832716283019655932542975))) (and (>= (|tx.gasprice| tx_0) 0) (<= (|tx.gasprice| tx_0) 115792089237316195423570985008687907853269984665640564039457584007913129639935))) (and (and (and (and (and (and (= (|msg.value| tx_0) 0) (= (|msg.sig| tx_0) 1833756220)) (= (select (|bytes_tuple_accessor_array| (|msg.data| tx_0)) 0) 109)) (= (select (|bytes_tuple_accessor_array| (|msg.data| tx_0)) 1) 76)) (= (select (|bytes_tuple_accessor_array| (|msg.data| tx_0)) 2) 230)) (= (select (|bytes_tuple_accessor_array| (|msg.data| tx_0)) 3) 60)) (>= (|bytes_tuple_accessor_length| (|msg.data| tx_0)) 4))) (and (and (and (and (= state_1 state_0) (= error_0 0)) (and (and true (= storedData_3_1 storedData_3_0)) (= balances_7_length_pair_1 balances_7_length_pair_0))) true) true))))))) true) (summary_4_function_get__43_44 error_1 this_0 abi_0 crypto_0 tx_0 state_0 storedData_3_0 balances_7_length_pair_0 state_3 storedData_3_2 balances_7_length_pair_2 _10_1)))
)
(assert (forall( (_10_1 Int) (abi_0 |abi_type|) (balances_7_length_pair_0 |mapping(address => uint256)_tuple|) (balances_7_length_pair_1 |mapping(address => uint256)_tuple|) (crypto_0 |crypto_type|) (error_0 Int) (state_0 |state_type|) (state_1 |state_type|) (storedData_3_0 Int) (storedData_3_1 Int) (this_0 Int) (tx_0 |tx_type|))
(=> (and (and (interface_0_SimpleStorage_44 this_0 abi_0 crypto_0 state_0 storedData_3_0 balances_7_length_pair_0) true) (and (summary_4_function_get__43_44 error_0 this_0 abi_0 crypto_0 tx_0 state_0 storedData_3_0 balances_7_length_pair_0 state_1 storedData_3_1 balances_7_length_pair_1 _10_1) (= error_0 0))) (interface_0_SimpleStorage_44 this_0 abi_0 crypto_0 state_1 storedData_3_1 balances_7_length_pair_1)))
)
(declare-fun |contract_initializer_16_SimpleStorage_44| (Int Int |abi_type| |crypto_type| |tx_type| |state_type| |state_type| Int |mapping(address => uint256)_tuple| Int |mapping(address => uint256)_tuple|) Bool)
(declare-fun |contract_initializer_entry_17_SimpleStorage_44| (Int Int |abi_type| |crypto_type| |tx_type| |state_type| |state_type| Int |mapping(address => uint256)_tuple| Int |mapping(address => uint256)_tuple|) Bool)
(assert (forall( (abi_0 |abi_type|) (balances_7_length_pair_0 |mapping(address => uint256)_tuple|) (balances_7_length_pair_1 |mapping(address => uint256)_tuple|) (crypto_0 |crypto_type|) (error_0 Int) (state_0 |state_type|) (state_1 |state_type|) (storedData_3_0 Int) (storedData_3_1 Int) (this_0 Int) (tx_0 |tx_type|))
(=> (and (and (= state_1 state_0) (= error_0 0)) (and (and true (= storedData_3_1 storedData_3_0)) (= balances_7_length_pair_1 balances_7_length_pair_0))) (contract_initializer_entry_17_SimpleStorage_44 error_0 this_0 abi_0 crypto_0 tx_0 state_0 state_1 storedData_3_0 balances_7_length_pair_0 storedData_3_1 balances_7_length_pair_1)))
)
(declare-fun |contract_initializer_after_init_18_SimpleStorage_44| (Int Int |abi_type| |crypto_type| |tx_type| |state_type| |state_type| Int |mapping(address => uint256)_tuple| Int |mapping(address => uint256)_tuple|) Bool)
(assert (forall( (abi_0 |abi_type|) (balances_7_length_pair_0 |mapping(address => uint256)_tuple|) (balances_7_length_pair_1 |mapping(address => uint256)_tuple|) (crypto_0 |crypto_type|) (error_0 Int) (state_0 |state_type|) (state_1 |state_type|) (storedData_3_0 Int) (storedData_3_1 Int) (this_0 Int) (tx_0 |tx_type|))
(=> (and (and (contract_initializer_entry_17_SimpleStorage_44 error_0 this_0 abi_0 crypto_0 tx_0 state_0 state_1 storedData_3_0 balances_7_length_pair_0 storedData_3_1 balances_7_length_pair_1) true) true) (contract_initializer_after_init_18_SimpleStorage_44 error_0 this_0 abi_0 crypto_0 tx_0 state_0 state_1 storedData_3_0 balances_7_length_pair_0 storedData_3_1 balances_7_length_pair_1)))
)
(assert (forall( (abi_0 |abi_type|) (balances_7_length_pair_0 |mapping(address => uint256)_tuple|) (balances_7_length_pair_1 |mapping(address => uint256)_tuple|) (crypto_0 |crypto_type|) (error_0 Int) (state_0 |state_type|) (state_1 |state_type|) (storedData_3_0 Int) (storedData_3_1 Int) (this_0 Int) (tx_0 |tx_type|))
(=> (and (and (contract_initializer_after_init_18_SimpleStorage_44 error_0 this_0 abi_0 crypto_0 tx_0 state_0 state_1 storedData_3_0 balances_7_length_pair_0 storedData_3_1 balances_7_length_pair_1) true) true) (contract_initializer_16_SimpleStorage_44 error_0 this_0 abi_0 crypto_0 tx_0 state_0 state_1 storedData_3_0 balances_7_length_pair_0 storedData_3_1 balances_7_length_pair_1)))
)
(declare-fun |implicit_constructor_entry_19_SimpleStorage_44| (Int Int |abi_type| |crypto_type| |tx_type| |state_type| |state_type| Int |mapping(address => uint256)_tuple| Int |mapping(address => uint256)_tuple|) Bool)
(assert (forall( (abi_0 |abi_type|) (balances_7_length_pair_0 |mapping(address => uint256)_tuple|) (balances_7_length_pair_1 |mapping(address => uint256)_tuple|) (crypto_0 |crypto_type|) (error_0 Int) (state_0 |state_type|) (state_1 |state_type|) (storedData_3_0 Int) (storedData_3_1 Int) (this_0 Int) (tx_0 |tx_type|))
(=> (and (and (and (and (and (= state_1 state_0) (= error_0 0)) (and (and true (= storedData_3_1 storedData_3_0)) (= balances_7_length_pair_1 balances_7_length_pair_0))) (and (and true (= storedData_3_1 0)) (= balances_7_length_pair_1 (|mapping(address => uint256)_tuple| ((as const (Array Int Int)) 0) 0)))) true) (>= (select (|balances| state_1) this_0) (|msg.value| tx_0))) (implicit_constructor_entry_19_SimpleStorage_44 error_0 this_0 abi_0 crypto_0 tx_0 state_0 state_1 storedData_3_0 balances_7_length_pair_0 storedData_3_1 balances_7_length_pair_1)))
)
(assert (forall( (abi_0 |abi_type|) (balances_7_length_pair_0 |mapping(address => uint256)_tuple|) (balances_7_length_pair_1 |mapping(address => uint256)_tuple|) (balances_7_length_pair_2 |mapping(address => uint256)_tuple|) (crypto_0 |crypto_type|) (error_0 Int) (error_1 Int) (state_0 |state_type|) (state_1 |state_type|) (state_2 |state_type|) (storedData_3_0 Int) (storedData_3_1 Int) (storedData_3_2 Int) (this_0 Int) (tx_0 |tx_type|))
(=> (and (and (implicit_constructor_entry_19_SimpleStorage_44 error_0 this_0 abi_0 crypto_0 tx_0 state_0 state_1 storedData_3_0 balances_7_length_pair_0 storedData_3_1 balances_7_length_pair_1) (and (contract_initializer_16_SimpleStorage_44 error_1 this_0 abi_0 crypto_0 tx_0 state_1 state_2 storedData_3_1 balances_7_length_pair_1 storedData_3_2 balances_7_length_pair_2) true)) (> error_1 0)) (summary_constructor_2_SimpleStorage_44 error_1 this_0 abi_0 crypto_0 tx_0 state_0 state_2 storedData_3_0 balances_7_length_pair_0 storedData_3_2 balances_7_length_pair_2)))
)
(assert (forall( (abi_0 |abi_type|) (balances_7_length_pair_0 |mapping(address => uint256)_tuple|) (balances_7_length_pair_1 |mapping(address => uint256)_tuple|) (balances_7_length_pair_2 |mapping(address => uint256)_tuple|) (crypto_0 |crypto_type|) (error_0 Int) (error_1 Int) (state_0 |state_type|) (state_1 |state_type|) (state_2 |state_type|) (storedData_3_0 Int) (storedData_3_1 Int) (storedData_3_2 Int) (this_0 Int) (tx_0 |tx_type|))
(=> (and (and (implicit_constructor_entry_19_SimpleStorage_44 error_0 this_0 abi_0 crypto_0 tx_0 state_0 state_1 storedData_3_0 balances_7_length_pair_0 storedData_3_1 balances_7_length_pair_1) (and (= error_1 0) (and (contract_initializer_16_SimpleStorage_44 error_1 this_0 abi_0 crypto_0 tx_0 state_1 state_2 storedData_3_1 balances_7_length_pair_1 storedData_3_2 balances_7_length_pair_2) true))) true) (summary_constructor_2_SimpleStorage_44 error_1 this_0 abi_0 crypto_0 tx_0 state_0 state_2 storedData_3_0 balances_7_length_pair_0 storedData_3_2 balances_7_length_pair_2)))
)
(assert (forall( (abi_0 |abi_type|) (balances_7_length_pair_0 |mapping(address => uint256)_tuple|) (balances_7_length_pair_1 |mapping(address => uint256)_tuple|) (crypto_0 |crypto_type|) (error_0 Int) (state_0 |state_type|) (state_1 |state_type|) (storedData_3_0 Int) (storedData_3_1 Int) (this_0 Int) (tx_0 |tx_type|))
(=> (and (and (summary_constructor_2_SimpleStorage_44 error_0 this_0 abi_0 crypto_0 tx_0 state_0 state_1 storedData_3_0 balances_7_length_pair_0 storedData_3_1 balances_7_length_pair_1) true) (and (and (and (and (and (and (and (and (and (and (and (and (and (> (|block.prevrandao| tx_0) 18446744073709551616) (and (>= (|block.basefee| tx_0) 0) (<= (|block.basefee| tx_0) 115792089237316195423570985008687907853269984665640564039457584007913129639935))) (and (>= (|block.chainid| tx_0) 0) (<= (|block.chainid| tx_0) 115792089237316195423570985008687907853269984665640564039457584007913129639935))) (and (>= (|block.coinbase| tx_0) 0) (<= (|block.coinbase| tx_0) 1461501637330902918203684832716283019655932542975))) (and (>= (|block.prevrandao| tx_0) 0) (<= (|block.prevrandao| tx_0) 115792089237316195423570985008687907853269984665640564039457584007913129639935))) (and (>= (|block.gaslimit| tx_0) 0) (<= (|block.gaslimit| tx_0) 115792089237316195423570985008687907853269984665640564039457584007913129639935))) (and (>= (|block.number| tx_0) 0) (<= (|block.number| tx_0) 115792089237316195423570985008687907853269984665640564039457584007913129639935))) (and (>= (|block.timestamp| tx_0) 0) (<= (|block.timestamp| tx_0) 115792089237316195423570985008687907853269984665640564039457584007913129639935))) (and (>= (|msg.sender| tx_0) 0) (<= (|msg.sender| tx_0) 1461501637330902918203684832716283019655932542975))) (and (>= (|msg.value| tx_0) 0) (<= (|msg.value| tx_0) 115792089237316195423570985008687907853269984665640564039457584007913129639935))) (and (>= (|tx.origin| tx_0) 0) (<= (|tx.origin| tx_0) 1461501637330902918203684832716283019655932542975))) (and (>= (|tx.gasprice| tx_0) 0) (<= (|tx.gasprice| tx_0) 115792089237316195423570985008687907853269984665640564039457584007913129639935))) (= (|msg.value| tx_0) 0)) (= error_0 0))) (interface_0_SimpleStorage_44 this_0 abi_0 crypto_0 state_1 storedData_3_1 balances_7_length_pair_1)))
)
(declare-fun |error_target_3| () Bool)
(assert (forall( (_10_1 Int) (abi_0 |abi_type|) (balances_7_length_pair_0 |mapping(address => uint256)_tuple|) (balances_7_length_pair_1 |mapping(address => uint256)_tuple|) (crypto_0 |crypto_type|) (error_0 Int) (state_0 |state_type|) (state_1 |state_type|) (storedData_3_0 Int) (storedData_3_1 Int) (this_0 Int) (tx_0 |tx_type|))
(=> (and (and (interface_0_SimpleStorage_44 this_0 abi_0 crypto_0 state_0 storedData_3_0 balances_7_length_pair_0) true) (and (summary_4_function_get__43_44 error_0 this_0 abi_0 crypto_0 tx_0 state_0 storedData_3_0 balances_7_length_pair_0 state_1 storedData_3_1 balances_7_length_pair_1 _10_1) (= error_0 1))) error_target_3))
)(assert
(forall ((UNUSED Bool))
(=> error_target_3 false)))
(check-sat)


Warning: CHC: 1 verification condition(s) could not be proved. Enable the model checker option "show unproved" to see all of them. Consider choosing a specific contract to be verified in order to reduce the solving problems. Consider increasing the timeout per query.

Warning: CHC analysis was not possible. No Horn solver was available. None of the installed solvers was enabled.

